p edge 34 104
v 1 112
v 2 200
v 3 224
v 4 50
v 5 25
v 6 125
v 7 80
v 8 120
v 9 120
v 10 14
v 11 125
v 12 45
v 13 20
v 14 50
v 15 120
v 16 80
v 17 90
v 18 75
v 19 35
v 20 125
v 21 45
v 22 10
v 23 30
v 24 90
v 25 25
v 26 65
v 27 30
v 28 95
v 29 10
v 30 120
v 31 40
v 32 140
v 33 60
v 34 20
e 1 2
e 1 3
e 1 4
e 1 12
e 1 20
e 1 32
e 2 3
e 2 4
e 2 21
e 2 29
e 3 4
e 3 6
e 3 13
e 3 22
e 3 34
e 4 7
e 4 14
e 4 26
e 5 6
e 5 7
e 5 27
e 6 7
e 6 13
e 6 22
e 6 34
e 7 14
e 7 26
e 8 9
e 8 10
e 8 11
e 8 18
e 8 31
e 9 10
e 9 16
e 9 19
e 9 24
e 9 28
e 10 17
e 10 25
e 10 33
e 11 12
e 11 13
e 11 14
e 11 15
e 11 18
e 11 31
e 12 13
e 12 14
e 12 15
e 12 20
e 12 32
e 13 14
e 13 15
e 13 22
e 13 34
e 14 15
e 14 26
e 15 23
e 15 30
e 16 17
e 16 19
e 16 24
e 16 28
e 17 25
e 17 33
e 18 19
e 18 20
e 18 21
e 18 22
e 18 23
e 18 31
e 19 20
e 19 21
e 19 22
e 19 23
e 19 24
e 19 28
e 20 21
e 20 22
e 20 23
e 20 32
e 21 22
e 21 23
e 21 29
e 22 23
e 22 34
e 23 30
e 24 25
e 24 26
e 24 28
e 25 26
e 25 33
e 27 28
e 27 29
e 27 30
e 28 29
e 28 30
e 29 30
e 31 32
e 31 33
e 31 34
e 32 33
e 32 34
e 33 34
